20 10
80 88 80 72 76 71 77 71 86 74
3 5 10 5 14 5 9 12 8 19
69 86 84 68 75 68 77 80 89 68
84 73 53 85 71 73 63 76 77 53
4 2 2 5 3 3 3 2 3 3
12 34 22 20 14 32 13 9 12 19
74 86 91 73 89 84 85 86 86 80
10 26 15 9 10 6 15 6 10 16
37 44 21 19 31 19 19 33 20 30
48 49 34 43 55 51 49 37 45 58
59 61 64 51 77 87 67 84 80 67
90 94 77 96 95 94 89 91 85 97
17 11 43 19 44 17 15 30 60 35
74 67 60 67 75 87 73 82 78 81
5 6 3 6 4 2 3 9 3 4
4 6 7 9 3 9 11 4 10 6
85 79 80 78 91 83 81 69 78 86
68 89 69 75 70 79 89 94 84 89
23 40 26 58 10 20 16 20 16 37
20 30 43 35 17 19 30 31 26 27
